\* Source Pyomo model name=unknown *\

min 
obj:
+1 y(1_2_1)
+1 z(1_2_1)
+1 y(1_2_2)
+1 z(1_2_2)
+1 y(1_2_3)
+1 z(1_2_3)
+1 y(1_3_1)
+1 z(1_3_1)
+1 y(1_3_2)
+1 z(1_3_2)
+1 y(1_3_3)
+1 z(1_3_3)
+1 y(1_4_1)
+1 z(1_4_1)
+1 y(1_4_2)
+1 z(1_4_2)
+1 y(1_4_3)
+1 z(1_4_3)
+1 y(2_3_1)
+1 z(2_3_1)
+1 y(2_3_2)
+1 z(2_3_2)
+1 y(2_3_3)
+1 z(2_3_3)
+1 y(2_4_1)
+1 z(2_4_1)
+1 y(2_4_2)
+1 z(2_4_2)
+1 y(2_4_3)
+1 z(2_4_3)
+1 y(3_4_1)
+1 z(3_4_1)
+1 y(3_4_2)
+1 z(3_4_2)
+1 y(3_4_3)
+1 z(3_4_3)

s.t.

c_e_constraints(1)_:
+1 x(1_2_1)
+1 x(1_2_2)
+1 x(1_2_3)
= 1

c_e_constraints(2)_:
+1 x(1_3_1)
+1 x(1_3_2)
+1 x(1_3_3)
= 1

c_e_constraints(3)_:
+1 x(1_4_1)
+1 x(1_4_2)
+1 x(1_4_3)
= 1

c_e_constraints(4)_:
+1 x(2_3_1)
+1 x(2_3_2)
+1 x(2_3_3)
= 1

c_e_constraints(5)_:
+1 x(2_4_1)
+1 x(2_4_2)
+1 x(2_4_3)
= 1

c_e_constraints(6)_:
+1 x(3_4_1)
+1 x(3_4_2)
+1 x(3_4_3)
= 1

c_e_constraints(7)_:
+1 x(1_2_1)
+1 x(1_3_1)
+1 x(1_4_1)
= 1

c_e_constraints(8)_:
+1 x(1_2_2)
+1 x(1_3_2)
+1 x(1_4_2)
= 1

c_e_constraints(9)_:
+1 x(1_2_3)
+1 x(1_3_3)
+1 x(1_4_3)
= 1

c_e_constraints(10)_:
+1 x(1_2_1)
+1 x(2_3_1)
+1 x(2_4_1)
= 1

c_e_constraints(11)_:
+1 x(1_2_2)
+1 x(2_3_2)
+1 x(2_4_2)
= 1

c_e_constraints(12)_:
+1 x(1_2_3)
+1 x(2_3_3)
+1 x(2_4_3)
= 1

c_e_constraints(13)_:
+1 x(1_3_1)
+1 x(2_3_1)
+1 x(3_4_1)
= 1

c_e_constraints(14)_:
+1 x(1_3_2)
+1 x(2_3_2)
+1 x(3_4_2)
= 1

c_e_constraints(15)_:
+1 x(1_3_3)
+1 x(2_3_3)
+1 x(3_4_3)
= 1

c_e_constraints(16)_:
+1 x(1_4_1)
+1 x(2_4_1)
+1 x(3_4_1)
= 1

c_e_constraints(17)_:
+1 x(1_4_2)
+1 x(2_4_2)
+1 x(3_4_2)
= 1

c_e_constraints(18)_:
+1 x(1_4_3)
+1 x(2_4_3)
+1 x(3_4_3)
= 1

c_e_constraints(19)_:
+1 d1(1_2_1)
-1 d2(1_2_1)
= 0

c_e_constraints(20)_:
+1 x(1_2_1)
-1 x(1_3_1)
-3 x(1_4_1)
+1 x(2_3_1)
+3 x(2_4_1)
+1 d1(1_2_2)
-1 d2(1_2_2)
= 0

c_e_constraints(21)_:
+1 x(1_2_1)
+1 x(1_2_2)
-1 x(1_3_1)
-1 x(1_3_2)
-3 x(1_4_1)
-3 x(1_4_2)
+1 x(2_3_1)
+1 x(2_3_2)
+3 x(2_4_1)
+3 x(2_4_2)
+1 d1(1_2_3)
-1 d2(1_2_3)
= 0

c_e_constraints(22)_:
+1 d1(1_3_1)
-1 d2(1_3_1)
= 0

c_e_constraints(23)_:
-1 x(1_2_1)
+1 x(1_3_1)
-3 x(1_4_1)
+1 x(2_3_1)
+1 d1(1_3_2)
-1 d2(1_3_2)
= 0

c_e_constraints(24)_:
-1 x(1_2_1)
-1 x(1_2_2)
+1 x(1_3_1)
+1 x(1_3_2)
-3 x(1_4_1)
-3 x(1_4_2)
+1 x(2_3_1)
+1 x(2_3_2)
+1 d1(1_3_3)
-1 d2(1_3_3)
= 0

c_e_constraints(25)_:
+1 d1(1_4_1)
-1 d2(1_4_1)
= 0

c_e_constraints(26)_:
-1 x(1_2_1)
-1 x(1_3_1)
+3 x(3_4_1)
+1 d1(1_4_2)
-1 d2(1_4_2)
= 0

c_e_constraints(27)_:
-1 x(1_2_1)
-1 x(1_2_2)
-1 x(1_3_1)
-1 x(1_3_2)
+3 x(3_4_1)
+3 x(3_4_2)
+1 d1(1_4_3)
-1 d2(1_4_3)
= 0

c_e_constraints(28)_:
+1 d1(2_3_1)
-1 d2(2_3_1)
= 0

c_e_constraints(29)_:
-1 x(1_2_1)
+1 x(1_3_1)
+1 x(2_3_1)
-3 x(2_4_1)
+1 d1(2_3_2)
-1 d2(2_3_2)
= 0

c_e_constraints(30)_:
-1 x(1_2_1)
-1 x(1_2_2)
+1 x(1_3_1)
+1 x(1_3_2)
+1 x(2_3_1)
+1 x(2_3_2)
-3 x(2_4_1)
-3 x(2_4_2)
+1 d1(2_3_3)
-1 d2(2_3_3)
= 0

c_e_constraints(31)_:
+1 d1(2_4_1)
-1 d2(2_4_1)
= 0

c_e_constraints(32)_:
-1 x(1_2_1)
-1 x(2_3_1)
+3 x(3_4_1)
+1 d1(2_4_2)
-1 d2(2_4_2)
= 0

c_e_constraints(33)_:
-1 x(1_2_1)
-1 x(1_2_2)
-1 x(2_3_1)
-1 x(2_3_2)
+3 x(3_4_1)
+3 x(3_4_2)
+1 d1(2_4_3)
-1 d2(2_4_3)
= 0

c_e_constraints(34)_:
+1 d1(3_4_1)
-1 d2(3_4_1)
= 0

c_e_constraints(35)_:
-1 x(1_3_1)
-1 x(2_3_1)
+3 x(3_4_1)
+1 d1(3_4_2)
-1 d2(3_4_2)
= 0

c_e_constraints(36)_:
-1 x(1_3_1)
-1 x(1_3_2)
-1 x(2_3_1)
-1 x(2_3_2)
+3 x(3_4_1)
+3 x(3_4_2)
+1 d1(3_4_3)
-1 d2(3_4_3)
= 0

c_u_constraints(37)_:
+1 y(1_2_1)
-100 x(1_2_1)
<= 0

c_u_constraints(38)_:
+1 y(1_2_2)
-100 x(1_2_2)
<= 0

c_u_constraints(39)_:
+1 y(1_2_3)
-100 x(1_2_3)
<= 0

c_u_constraints(40)_:
+1 y(1_3_1)
-100 x(1_3_1)
<= 0

c_u_constraints(41)_:
+1 y(1_3_2)
-100 x(1_3_2)
<= 0

c_u_constraints(42)_:
+1 y(1_3_3)
-100 x(1_3_3)
<= 0

c_u_constraints(43)_:
+1 y(1_4_1)
-100 x(1_4_1)
<= 0

c_u_constraints(44)_:
+1 y(1_4_2)
-100 x(1_4_2)
<= 0

c_u_constraints(45)_:
+1 y(1_4_3)
-100 x(1_4_3)
<= 0

c_u_constraints(46)_:
+1 y(2_3_1)
-100 x(2_3_1)
<= 0

c_u_constraints(47)_:
+1 y(2_3_2)
-100 x(2_3_2)
<= 0

c_u_constraints(48)_:
+1 y(2_3_3)
-100 x(2_3_3)
<= 0

c_u_constraints(49)_:
+1 y(2_4_1)
-100 x(2_4_1)
<= 0

c_u_constraints(50)_:
+1 y(2_4_2)
-100 x(2_4_2)
<= 0

c_u_constraints(51)_:
+1 y(2_4_3)
-100 x(2_4_3)
<= 0

c_u_constraints(52)_:
+1 y(3_4_1)
-100 x(3_4_1)
<= 0

c_u_constraints(53)_:
+1 y(3_4_2)
-100 x(3_4_2)
<= 0

c_u_constraints(54)_:
+1 y(3_4_3)
-100 x(3_4_3)
<= 0

c_u_constraints(55)_:
+1 y(1_2_1)
-1 d1(1_2_1)
<= 0

c_u_constraints(56)_:
+1 y(1_2_2)
-1 d1(1_2_2)
<= 0

c_u_constraints(57)_:
+1 y(1_2_3)
-1 d1(1_2_3)
<= 0

c_u_constraints(58)_:
+1 y(1_3_1)
-1 d1(1_3_1)
<= 0

c_u_constraints(59)_:
+1 y(1_3_2)
-1 d1(1_3_2)
<= 0

c_u_constraints(60)_:
+1 y(1_3_3)
-1 d1(1_3_3)
<= 0

c_u_constraints(61)_:
+1 y(1_4_1)
-1 d1(1_4_1)
<= 0

c_u_constraints(62)_:
+1 y(1_4_2)
-1 d1(1_4_2)
<= 0

c_u_constraints(63)_:
+1 y(1_4_3)
-1 d1(1_4_3)
<= 0

c_u_constraints(64)_:
+1 y(2_3_1)
-1 d1(2_3_1)
<= 0

c_u_constraints(65)_:
+1 y(2_3_2)
-1 d1(2_3_2)
<= 0

c_u_constraints(66)_:
+1 y(2_3_3)
-1 d1(2_3_3)
<= 0

c_u_constraints(67)_:
+1 y(2_4_1)
-1 d1(2_4_1)
<= 0

c_u_constraints(68)_:
+1 y(2_4_2)
-1 d1(2_4_2)
<= 0

c_u_constraints(69)_:
+1 y(2_4_3)
-1 d1(2_4_3)
<= 0

c_u_constraints(70)_:
+1 y(3_4_1)
-1 d1(3_4_1)
<= 0

c_u_constraints(71)_:
+1 y(3_4_2)
-1 d1(3_4_2)
<= 0

c_u_constraints(72)_:
+1 y(3_4_3)
-1 d1(3_4_3)
<= 0

c_u_constraints(73)_:
+1 z(1_2_1)
-100 x(1_2_1)
<= 0

c_u_constraints(74)_:
+1 z(1_2_2)
-100 x(1_2_2)
<= 0

c_u_constraints(75)_:
+1 z(1_2_3)
-100 x(1_2_3)
<= 0

c_u_constraints(76)_:
+1 z(1_3_1)
-100 x(1_3_1)
<= 0

c_u_constraints(77)_:
+1 z(1_3_2)
-100 x(1_3_2)
<= 0

c_u_constraints(78)_:
+1 z(1_3_3)
-100 x(1_3_3)
<= 0

c_u_constraints(79)_:
+1 z(1_4_1)
-100 x(1_4_1)
<= 0

c_u_constraints(80)_:
+1 z(1_4_2)
-100 x(1_4_2)
<= 0

c_u_constraints(81)_:
+1 z(1_4_3)
-100 x(1_4_3)
<= 0

c_u_constraints(82)_:
+1 z(2_3_1)
-100 x(2_3_1)
<= 0

c_u_constraints(83)_:
+1 z(2_3_2)
-100 x(2_3_2)
<= 0

c_u_constraints(84)_:
+1 z(2_3_3)
-100 x(2_3_3)
<= 0

c_u_constraints(85)_:
+1 z(2_4_1)
-100 x(2_4_1)
<= 0

c_u_constraints(86)_:
+1 z(2_4_2)
-100 x(2_4_2)
<= 0

c_u_constraints(87)_:
+1 z(2_4_3)
-100 x(2_4_3)
<= 0

c_u_constraints(88)_:
+1 z(3_4_1)
-100 x(3_4_1)
<= 0

c_u_constraints(89)_:
+1 z(3_4_2)
-100 x(3_4_2)
<= 0

c_u_constraints(90)_:
+1 z(3_4_3)
-100 x(3_4_3)
<= 0

c_u_constraints(91)_:
+1 z(1_2_1)
-1 d2(1_2_1)
<= 0

c_u_constraints(92)_:
+1 z(1_2_2)
-1 d2(1_2_2)
<= 0

c_u_constraints(93)_:
+1 z(1_2_3)
-1 d2(1_2_3)
<= 0

c_u_constraints(94)_:
+1 z(1_3_1)
-1 d2(1_3_1)
<= 0

c_u_constraints(95)_:
+1 z(1_3_2)
-1 d2(1_3_2)
<= 0

c_u_constraints(96)_:
+1 z(1_3_3)
-1 d2(1_3_3)
<= 0

c_u_constraints(97)_:
+1 z(1_4_1)
-1 d2(1_4_1)
<= 0

c_u_constraints(98)_:
+1 z(1_4_2)
-1 d2(1_4_2)
<= 0

c_u_constraints(99)_:
+1 z(1_4_3)
-1 d2(1_4_3)
<= 0

c_u_constraints(100)_:
+1 z(2_3_1)
-1 d2(2_3_1)
<= 0

c_u_constraints(101)_:
+1 z(2_3_2)
-1 d2(2_3_2)
<= 0

c_u_constraints(102)_:
+1 z(2_3_3)
-1 d2(2_3_3)
<= 0

c_u_constraints(103)_:
+1 z(2_4_1)
-1 d2(2_4_1)
<= 0

c_u_constraints(104)_:
+1 z(2_4_2)
-1 d2(2_4_2)
<= 0

c_u_constraints(105)_:
+1 z(2_4_3)
-1 d2(2_4_3)
<= 0

c_u_constraints(106)_:
+1 z(3_4_1)
-1 d2(3_4_1)
<= 0

c_u_constraints(107)_:
+1 z(3_4_2)
-1 d2(3_4_2)
<= 0

c_u_constraints(108)_:
+1 z(3_4_3)
-1 d2(3_4_3)
<= 0

c_u_constraints(109)_:
-1 y(1_2_1)
+100 x(1_2_1)
+1 d1(1_2_1)
<= 100

c_u_constraints(110)_:
-1 y(1_2_2)
+100 x(1_2_2)
+1 d1(1_2_2)
<= 100

c_u_constraints(111)_:
-1 y(1_2_3)
+100 x(1_2_3)
+1 d1(1_2_3)
<= 100

c_u_constraints(112)_:
-1 y(1_3_1)
+100 x(1_3_1)
+1 d1(1_3_1)
<= 100

c_u_constraints(113)_:
-1 y(1_3_2)
+100 x(1_3_2)
+1 d1(1_3_2)
<= 100

c_u_constraints(114)_:
-1 y(1_3_3)
+100 x(1_3_3)
+1 d1(1_3_3)
<= 100

c_u_constraints(115)_:
-1 y(1_4_1)
+100 x(1_4_1)
+1 d1(1_4_1)
<= 100

c_u_constraints(116)_:
-1 y(1_4_2)
+100 x(1_4_2)
+1 d1(1_4_2)
<= 100

c_u_constraints(117)_:
-1 y(1_4_3)
+100 x(1_4_3)
+1 d1(1_4_3)
<= 100

c_u_constraints(118)_:
-1 y(2_3_1)
+100 x(2_3_1)
+1 d1(2_3_1)
<= 100

c_u_constraints(119)_:
-1 y(2_3_2)
+100 x(2_3_2)
+1 d1(2_3_2)
<= 100

c_u_constraints(120)_:
-1 y(2_3_3)
+100 x(2_3_3)
+1 d1(2_3_3)
<= 100

c_u_constraints(121)_:
-1 y(2_4_1)
+100 x(2_4_1)
+1 d1(2_4_1)
<= 100

c_u_constraints(122)_:
-1 y(2_4_2)
+100 x(2_4_2)
+1 d1(2_4_2)
<= 100

c_u_constraints(123)_:
-1 y(2_4_3)
+100 x(2_4_3)
+1 d1(2_4_3)
<= 100

c_u_constraints(124)_:
-1 y(3_4_1)
+100 x(3_4_1)
+1 d1(3_4_1)
<= 100

c_u_constraints(125)_:
-1 y(3_4_2)
+100 x(3_4_2)
+1 d1(3_4_2)
<= 100

c_u_constraints(126)_:
-1 y(3_4_3)
+100 x(3_4_3)
+1 d1(3_4_3)
<= 100

c_u_constraints(127)_:
-1 z(1_2_1)
+100 x(1_2_1)
+1 d2(1_2_1)
<= 100

c_u_constraints(128)_:
-1 z(1_2_2)
+100 x(1_2_2)
+1 d2(1_2_2)
<= 100

c_u_constraints(129)_:
-1 z(1_2_3)
+100 x(1_2_3)
+1 d2(1_2_3)
<= 100

c_u_constraints(130)_:
-1 z(1_3_1)
+100 x(1_3_1)
+1 d2(1_3_1)
<= 100

c_u_constraints(131)_:
-1 z(1_3_2)
+100 x(1_3_2)
+1 d2(1_3_2)
<= 100

c_u_constraints(132)_:
-1 z(1_3_3)
+100 x(1_3_3)
+1 d2(1_3_3)
<= 100

c_u_constraints(133)_:
-1 z(1_4_1)
+100 x(1_4_1)
+1 d2(1_4_1)
<= 100

c_u_constraints(134)_:
-1 z(1_4_2)
+100 x(1_4_2)
+1 d2(1_4_2)
<= 100

c_u_constraints(135)_:
-1 z(1_4_3)
+100 x(1_4_3)
+1 d2(1_4_3)
<= 100

c_u_constraints(136)_:
-1 z(2_3_1)
+100 x(2_3_1)
+1 d2(2_3_1)
<= 100

c_u_constraints(137)_:
-1 z(2_3_2)
+100 x(2_3_2)
+1 d2(2_3_2)
<= 100

c_u_constraints(138)_:
-1 z(2_3_3)
+100 x(2_3_3)
+1 d2(2_3_3)
<= 100

c_u_constraints(139)_:
-1 z(2_4_1)
+100 x(2_4_1)
+1 d2(2_4_1)
<= 100

c_u_constraints(140)_:
-1 z(2_4_2)
+100 x(2_4_2)
+1 d2(2_4_2)
<= 100

c_u_constraints(141)_:
-1 z(2_4_3)
+100 x(2_4_3)
+1 d2(2_4_3)
<= 100

c_u_constraints(142)_:
-1 z(3_4_1)
+100 x(3_4_1)
+1 d2(3_4_1)
<= 100

c_u_constraints(143)_:
-1 z(3_4_2)
+100 x(3_4_2)
+1 d2(3_4_2)
<= 100

c_u_constraints(144)_:
-1 z(3_4_3)
+100 x(3_4_3)
+1 d2(3_4_3)
<= 100

bounds
   0 <= y(1_2_1) <= +inf
   0 <= z(1_2_1) <= +inf
   0 <= y(1_2_2) <= +inf
   0 <= z(1_2_2) <= +inf
   0 <= y(1_2_3) <= +inf
   0 <= z(1_2_3) <= +inf
   0 <= y(1_3_1) <= +inf
   0 <= z(1_3_1) <= +inf
   0 <= y(1_3_2) <= +inf
   0 <= z(1_3_2) <= +inf
   0 <= y(1_3_3) <= +inf
   0 <= z(1_3_3) <= +inf
   0 <= y(1_4_1) <= +inf
   0 <= z(1_4_1) <= +inf
   0 <= y(1_4_2) <= +inf
   0 <= z(1_4_2) <= +inf
   0 <= y(1_4_3) <= +inf
   0 <= z(1_4_3) <= +inf
   0 <= y(2_3_1) <= +inf
   0 <= z(2_3_1) <= +inf
   0 <= y(2_3_2) <= +inf
   0 <= z(2_3_2) <= +inf
   0 <= y(2_3_3) <= +inf
   0 <= z(2_3_3) <= +inf
   0 <= y(2_4_1) <= +inf
   0 <= z(2_4_1) <= +inf
   0 <= y(2_4_2) <= +inf
   0 <= z(2_4_2) <= +inf
   0 <= y(2_4_3) <= +inf
   0 <= z(2_4_3) <= +inf
   0 <= y(3_4_1) <= +inf
   0 <= z(3_4_1) <= +inf
   0 <= y(3_4_2) <= +inf
   0 <= z(3_4_2) <= +inf
   0 <= y(3_4_3) <= +inf
   0 <= z(3_4_3) <= +inf
   0 <= x(1_2_1) <= 1
   0 <= x(1_2_2) <= 1
   0 <= x(1_2_3) <= 1
   0 <= x(1_3_1) <= 1
   0 <= x(1_3_2) <= 1
   0 <= x(1_3_3) <= 1
   0 <= x(1_4_1) <= 1
   0 <= x(1_4_2) <= 1
   0 <= x(1_4_3) <= 1
   0 <= x(2_3_1) <= 1
   0 <= x(2_3_2) <= 1
   0 <= x(2_3_3) <= 1
   0 <= x(2_4_1) <= 1
   0 <= x(2_4_2) <= 1
   0 <= x(2_4_3) <= 1
   0 <= x(3_4_1) <= 1
   0 <= x(3_4_2) <= 1
   0 <= x(3_4_3) <= 1
   0 <= d1(1_2_1) <= +inf
   0 <= d2(1_2_1) <= +inf
   0 <= d1(1_2_2) <= +inf
   0 <= d2(1_2_2) <= +inf
   0 <= d1(1_2_3) <= +inf
   0 <= d2(1_2_3) <= +inf
   0 <= d1(1_3_1) <= +inf
   0 <= d2(1_3_1) <= +inf
   0 <= d1(1_3_2) <= +inf
   0 <= d2(1_3_2) <= +inf
   0 <= d1(1_3_3) <= +inf
   0 <= d2(1_3_3) <= +inf
   0 <= d1(1_4_1) <= +inf
   0 <= d2(1_4_1) <= +inf
   0 <= d1(1_4_2) <= +inf
   0 <= d2(1_4_2) <= +inf
   0 <= d1(1_4_3) <= +inf
   0 <= d2(1_4_3) <= +inf
   0 <= d1(2_3_1) <= +inf
   0 <= d2(2_3_1) <= +inf
   0 <= d1(2_3_2) <= +inf
   0 <= d2(2_3_2) <= +inf
   0 <= d1(2_3_3) <= +inf
   0 <= d2(2_3_3) <= +inf
   0 <= d1(2_4_1) <= +inf
   0 <= d2(2_4_1) <= +inf
   0 <= d1(2_4_2) <= +inf
   0 <= d2(2_4_2) <= +inf
   0 <= d1(2_4_3) <= +inf
   0 <= d2(2_4_3) <= +inf
   0 <= d1(3_4_1) <= +inf
   0 <= d2(3_4_1) <= +inf
   0 <= d1(3_4_2) <= +inf
   0 <= d2(3_4_2) <= +inf
   0 <= d1(3_4_3) <= +inf
   0 <= d2(3_4_3) <= +inf
general
  d1(1_2_1)
  d2(1_2_1)
  d1(1_2_2)
  d2(1_2_2)
  d1(1_2_3)
  d2(1_2_3)
  d1(1_3_1)
  d2(1_3_1)
  d1(1_3_2)
  d2(1_3_2)
  d1(1_3_3)
  d2(1_3_3)
  d1(1_4_1)
  d2(1_4_1)
  d1(1_4_2)
  d2(1_4_2)
  d1(1_4_3)
  d2(1_4_3)
  d1(2_3_1)
  d2(2_3_1)
  d1(2_3_2)
  d2(2_3_2)
  d1(2_3_3)
  d2(2_3_3)
  d1(2_4_1)
  d2(2_4_1)
  d1(2_4_2)
  d2(2_4_2)
  d1(2_4_3)
  d2(2_4_3)
  d1(3_4_1)
  d2(3_4_1)
  d1(3_4_2)
  d2(3_4_2)
  d1(3_4_3)
  d2(3_4_3)
binary
  x(1_2_1)
  x(1_2_2)
  x(1_2_3)
  x(1_3_1)
  x(1_3_2)
  x(1_3_3)
  x(1_4_1)
  x(1_4_2)
  x(1_4_3)
  x(2_3_1)
  x(2_3_2)
  x(2_3_3)
  x(2_4_1)
  x(2_4_2)
  x(2_4_3)
  x(3_4_1)
  x(3_4_2)
  x(3_4_3)
end
